(declare-fun __ESBMC_ptr_obj_start_0 () (_ BitVec 32))
(declare-fun __ESBMC_ptr_obj_end_0 () (_ BitVec 32))
(declare-fun __ESBMC_ptr_obj_start_1 () (_ BitVec 32))
(declare-fun __ESBMC_ptr_obj_end_1 () (_ BitVec 32))
(declare-fun |smt_conv::__ESBMC_ptr_addr_range_0..end0| () (_ BitVec 32))
(declare-fun |smt_conv::__ESBMC_ptr_addr_range_0..start0| () (_ BitVec 32))
(declare-fun |smt_conv::__ESBMC_ptr_addr_range_1..end0| () (_ BitVec 32))
(declare-fun |smt_conv::__ESBMC_ptr_addr_range_1..start0| () (_ BitVec 32))
(declare-fun |smt_conv::smt_conv::collate_array_vals::0..end0| () (_ BitVec 32))
(declare-fun |smt_conv::smt_conv::collate_array_vals::0..start0|
             ()
             (_ BitVec 32))
(declare-fun |smt_conv::smt_conv::collate_array_vals::3..end0| () (_ BitVec 32))
(declare-fun |smt_conv::smt_conv::collate_array_vals::3..start0|
             ()
             (_ BitVec 32))
(declare-fun |smt_conv::smt_conv::collate_array_vals::4..end0| () (_ BitVec 32))
(declare-fun |smt_conv::smt_conv::collate_array_vals::4..start0|
             ()
             (_ BitVec 32))
(declare-fun |smt_conv::smt_conv::collate_array_vals::7..end0| () (_ BitVec 32))
(declare-fun |smt_conv::smt_conv::collate_array_vals::7..start0|
             ()
             (_ BitVec 32))
(declare-fun |main::$tmp::return_value$_nondet_float$1@1!0&0#1|
             ()
             (_ FloatingPoint 8 24))
(declare-fun |nondet$symex::nondet0| () (_ FloatingPoint 8 24))
(declare-fun |runge_kutta_1_5::main::1::y0@1!0&0#1| () (_ FloatingPoint 8 24))
(declare-fun |main::$tmp::return_value$_nondet_float$2@1!0&0#1|
             ()
             (_ FloatingPoint 8 24))
(declare-fun |nondet$symex::nondet1| () (_ FloatingPoint 8 24))
(declare-fun |runge_kutta_1_5::main::2::y0_opt@1!0&0#1|
             ()
             (_ FloatingPoint 8 24))
(declare-fun |runge_kutta_1_5::runge_kutta::y0@1!0&0#1|
             ()
             (_ FloatingPoint 8 24))
(declare-fun |runge_kutta_1_5::runge_kutta::9::yi@2!0&0#1|
             ()
             (_ FloatingPoint 8 24))
(declare-fun |runge_kutta_1_5::runge_kutta::4::k1@2!0&0#2|
             ()
             (_ FloatingPoint 8 24))
(declare-fun |runge_kutta_1_5::runge_kutta::5::k2@2!0&0#2|
             ()
             (_ FloatingPoint 8 24))
(declare-fun |runge_kutta_1_5::runge_kutta::8::ynext@2!0&0#2|
             ()
             (_ FloatingPoint 8 24))
(declare-fun |runge_kutta_1_5::runge_kutta::9::yi@2!0&0#2|
             ()
             (_ FloatingPoint 8 24))
(declare-fun |runge_kutta_1_5::runge_kutta::4::k1@2!0&0#3|
             ()
             (_ FloatingPoint 8 24))
(declare-fun |runge_kutta_1_5::runge_kutta::5::k2@2!0&0#3|
             ()
             (_ FloatingPoint 8 24))
(declare-fun |runge_kutta_1_5::runge_kutta::8::ynext@2!0&0#3|
             ()
             (_ FloatingPoint 8 24))
(declare-fun |runge_kutta_1_5::runge_kutta::9::yi@2!0&0#3|
             ()
             (_ FloatingPoint 8 24))
(declare-fun |runge_kutta_1_5::runge_kutta::4::k1@2!0&0#4|
             ()
             (_ FloatingPoint 8 24))
(declare-fun |runge_kutta_1_5::runge_kutta::5::k2@2!0&0#4|
             ()
             (_ FloatingPoint 8 24))
(declare-fun |runge_kutta_1_5::runge_kutta::8::ynext@2!0&0#4|
             ()
             (_ FloatingPoint 8 24))
(declare-fun |runge_kutta_1_5::runge_kutta::9::yi@2!0&0#4|
             ()
             (_ FloatingPoint 8 24))
(declare-fun |runge_kutta_1_5::runge_kutta::4::k1@2!0&0#5|
             ()
             (_ FloatingPoint 8 24))
(declare-fun |runge_kutta_1_5::runge_kutta::5::k2@2!0&0#5|
             ()
             (_ FloatingPoint 8 24))
(declare-fun |runge_kutta_1_5::runge_kutta::8::ynext@2!0&0#5|
             ()
             (_ FloatingPoint 8 24))
(declare-fun |runge_kutta_1_5::runge_kutta::9::yi@2!0&0#5|
             ()
             (_ FloatingPoint 8 24))
(declare-fun |runge_kutta_1_5::runge_kutta::4::k1@2!0&0#6|
             ()
             (_ FloatingPoint 8 24))
(declare-fun |runge_kutta_1_5::runge_kutta::5::k2@2!0&0#6|
             ()
             (_ FloatingPoint 8 24))
(declare-fun |runge_kutta_1_5::runge_kutta::8::ynext@2!0&0#6|
             ()
             (_ FloatingPoint 8 24))
(declare-fun |runge_kutta_1_5::runge_kutta::9::yi@2!0&0#6|
             ()
             (_ FloatingPoint 8 24))
(declare-fun |main::$tmp::return_value$_runge_kutta$3@1!0&0#1|
             ()
             (_ FloatingPoint 8 24))
(declare-fun |runge_kutta_1_5::runge_kutta_opt::y0@1!0&0#1|
             ()
             (_ FloatingPoint 8 24))
(declare-fun |runge_kutta_1_5::runge_kutta_opt::2::yi_opt@2!0&0#1|
             ()
             (_ FloatingPoint 8 24))
(declare-fun |runge_kutta_1_5::runge_kutta_opt::3::ynext_opt@2!0&0#2|
             ()
             (_ FloatingPoint 8 24))
(declare-fun |runge_kutta_1_5::runge_kutta_opt::2::yi_opt@2!0&0#2|
             ()
             (_ FloatingPoint 8 24))
(declare-fun |runge_kutta_1_5::runge_kutta_opt::3::ynext_opt@2!0&0#3|
             ()
             (_ FloatingPoint 8 24))
(declare-fun |runge_kutta_1_5::runge_kutta_opt::2::yi_opt@2!0&0#3|
             ()
             (_ FloatingPoint 8 24))
(declare-fun |runge_kutta_1_5::runge_kutta_opt::3::ynext_opt@2!0&0#4|
             ()
             (_ FloatingPoint 8 24))
(declare-fun |runge_kutta_1_5::runge_kutta_opt::2::yi_opt@2!0&0#4|
             ()
             (_ FloatingPoint 8 24))
(declare-fun |runge_kutta_1_5::runge_kutta_opt::3::ynext_opt@2!0&0#5|
             ()
             (_ FloatingPoint 8 24))
(declare-fun |runge_kutta_1_5::runge_kutta_opt::2::yi_opt@2!0&0#5|
             ()
             (_ FloatingPoint 8 24))
(declare-fun |runge_kutta_1_5::runge_kutta_opt::3::ynext_opt@2!0&0#6|
             ()
             (_ FloatingPoint 8 24))
(declare-fun |runge_kutta_1_5::runge_kutta_opt::2::yi_opt@2!0&0#6|
             ()
             (_ FloatingPoint 8 24))
(declare-fun |main::$tmp::return_value$_runge_kutta_opt$4@1!0&0#1|
             ()
             (_ FloatingPoint 8 24))
(declare-fun |runge_kutta_1_5::main::3::diff@1!0&0#2| () (_ FloatingPoint 8 24))
(declare-fun |goto_symex::guard@0!0&0#1| () Bool)
(declare-fun |execution_statet::guard_exec@0!0| () Bool)
(assert (= __ESBMC_ptr_obj_start_0 #x00000000))
(assert (= __ESBMC_ptr_obj_end_0 #x00000000))
(assert (= __ESBMC_ptr_obj_start_1 #x00000001))
(assert (= __ESBMC_ptr_obj_end_1 #xffffffff))
(assert (and (= |smt_conv::__ESBMC_ptr_addr_range_0..start0| __ESBMC_ptr_obj_start_0)
     (= |smt_conv::__ESBMC_ptr_addr_range_0..end0| __ESBMC_ptr_obj_end_0)))
(assert (and (= |smt_conv::__ESBMC_ptr_addr_range_1..start0| __ESBMC_ptr_obj_start_1)
     (= |smt_conv::__ESBMC_ptr_addr_range_1..end0| __ESBMC_ptr_obj_end_1)))
(assert (=> (= #x00000000 #x00000000)
    (and (= |smt_conv::smt_conv::collate_array_vals::0..start0|
            |smt_conv::smt_conv::collate_array_vals::0..start0|)
         (= |smt_conv::smt_conv::collate_array_vals::0..end0|
            |smt_conv::smt_conv::collate_array_vals::0..end0|))))
(assert (=> (= #x00000001 #x00000000)
    (and (= |smt_conv::smt_conv::collate_array_vals::3..start0|
            |smt_conv::smt_conv::collate_array_vals::0..start0|)
         (= |smt_conv::smt_conv::collate_array_vals::3..end0|
            |smt_conv::smt_conv::collate_array_vals::0..end0|))))
(assert (=> (= #x00000001 #x00000001)
    (and (= |smt_conv::smt_conv::collate_array_vals::3..start0|
            |smt_conv::smt_conv::collate_array_vals::3..start0|)
         (= |smt_conv::smt_conv::collate_array_vals::3..end0|
            |smt_conv::smt_conv::collate_array_vals::3..end0|))))
(assert (and (= |smt_conv::smt_conv::collate_array_vals::4..start0|
        (ite (= #x00000000 #x00000001)
             __ESBMC_ptr_obj_start_0
             |smt_conv::smt_conv::collate_array_vals::3..start0|))
     (= |smt_conv::smt_conv::collate_array_vals::4..end0|
        (ite (= #x00000000 #x00000001)
             __ESBMC_ptr_obj_end_0
             |smt_conv::smt_conv::collate_array_vals::3..end0|))))
(assert (and (= |smt_conv::smt_conv::collate_array_vals::7..start0|
        (ite (= #x00000001 #x00000000)
             __ESBMC_ptr_obj_start_1
             __ESBMC_ptr_obj_start_0))
     (= |smt_conv::smt_conv::collate_array_vals::7..end0|
        (ite (= #x00000001 #x00000000)
             __ESBMC_ptr_obj_end_1
             __ESBMC_ptr_obj_end_0))))
(assert (and (= #x00000000 #x00000000) (= #x00000000 #x00000000)))
(assert (and (= #x00000000 #x00000000) (= #x00000000 #x00000000)))
(assert (and (= #x00000001 #x00000001) (= #x00000000 #x00000000)))
(assert (= |nondet$symex::nondet0| |main::$tmp::return_value$_nondet_float$1@1!0&0#1|))
(assert (= |main::$tmp::return_value$_nondet_float$1@1!0&0#1|
   |runge_kutta_1_5::main::1::y0@1!0&0#1|))
(assert (= |nondet$symex::nondet1| |main::$tmp::return_value$_nondet_float$2@1!0&0#1|))
(assert (= |main::$tmp::return_value$_nondet_float$2@1!0&0#1|
   |runge_kutta_1_5::main::2::y0_opt@1!0&0#1|))
(assert (= |runge_kutta_1_5::main::1::y0@1!0&0#1|
   |runge_kutta_1_5::runge_kutta::y0@1!0&0#1|))
(assert (= |runge_kutta_1_5::runge_kutta::y0@1!0&0#1|
   |runge_kutta_1_5::runge_kutta::9::yi@2!0&0#1|))
(assert (let ((a!1 (fp.mul roundNearestTiesToEven
                   (fp.mul roundNearestTiesToEven
                           (fp #b0 #x7f #b00110011001100110011010)
                           (fp.sub roundNearestTiesToEven
                                   (fp #b0 #x85 #b10010000011001100110011)
                                   |runge_kutta_1_5::runge_kutta::9::yi@2!0&0#1|))
                   (fp.sub roundNearestTiesToEven
                           (fp #b0 #x85 #b10010000011001100110011)
                           |runge_kutta_1_5::runge_kutta::9::yi@2!0&0#1|))))
  (= a!1 |runge_kutta_1_5::runge_kutta::4::k1@2!0&0#2|)))
(assert (let ((a!1 (fp.sub roundNearestTiesToEven
                   (fp #b0 #x85 #b10010000011001100110011)
                   (fp.add roundNearestTiesToEven
                           |runge_kutta_1_5::runge_kutta::9::yi@2!0&0#1|
                           (fp.mul roundNearestTiesToEven
                                   (fp #b0 #x7a #b10011001100110011001101)
                                   |runge_kutta_1_5::runge_kutta::4::k1@2!0&0#2|)))))
  (= (fp.mul roundNearestTiesToEven
             (fp.mul roundNearestTiesToEven
                     (fp #b0 #x7f #b00110011001100110011010)
                     a!1)
             a!1)
     |runge_kutta_1_5::runge_kutta::5::k2@2!0&0#2|)))
(assert (= (fp.add roundNearestTiesToEven
           |runge_kutta_1_5::runge_kutta::9::yi@2!0&0#1|
           (fp.mul roundNearestTiesToEven
                   (fp #b0 #x7b #b10011001100110011001101)
                   |runge_kutta_1_5::runge_kutta::5::k2@2!0&0#2|))
   |runge_kutta_1_5::runge_kutta::8::ynext@2!0&0#2|))
(assert (= |runge_kutta_1_5::runge_kutta::8::ynext@2!0&0#2|
   |runge_kutta_1_5::runge_kutta::9::yi@2!0&0#2|))
(assert (let ((a!1 (fp.mul roundNearestTiesToEven
                   (fp.mul roundNearestTiesToEven
                           (fp #b0 #x7f #b00110011001100110011010)
                           (fp.sub roundNearestTiesToEven
                                   (fp #b0 #x85 #b10010000011001100110011)
                                   |runge_kutta_1_5::runge_kutta::9::yi@2!0&0#2|))
                   (fp.sub roundNearestTiesToEven
                           (fp #b0 #x85 #b10010000011001100110011)
                           |runge_kutta_1_5::runge_kutta::9::yi@2!0&0#2|))))
  (= a!1 |runge_kutta_1_5::runge_kutta::4::k1@2!0&0#3|)))
(assert (let ((a!1 (fp.sub roundNearestTiesToEven
                   (fp #b0 #x85 #b10010000011001100110011)
                   (fp.add roundNearestTiesToEven
                           |runge_kutta_1_5::runge_kutta::9::yi@2!0&0#2|
                           (fp.mul roundNearestTiesToEven
                                   (fp #b0 #x7a #b10011001100110011001101)
                                   |runge_kutta_1_5::runge_kutta::4::k1@2!0&0#3|)))))
  (= (fp.mul roundNearestTiesToEven
             (fp.mul roundNearestTiesToEven
                     (fp #b0 #x7f #b00110011001100110011010)
                     a!1)
             a!1)
     |runge_kutta_1_5::runge_kutta::5::k2@2!0&0#3|)))
(assert (= (fp.add roundNearestTiesToEven
           |runge_kutta_1_5::runge_kutta::9::yi@2!0&0#2|
           (fp.mul roundNearestTiesToEven
                   (fp #b0 #x7b #b10011001100110011001101)
                   |runge_kutta_1_5::runge_kutta::5::k2@2!0&0#3|))
   |runge_kutta_1_5::runge_kutta::8::ynext@2!0&0#3|))
(assert (= |runge_kutta_1_5::runge_kutta::8::ynext@2!0&0#3|
   |runge_kutta_1_5::runge_kutta::9::yi@2!0&0#3|))
(assert (let ((a!1 (fp.mul roundNearestTiesToEven
                   (fp.mul roundNearestTiesToEven
                           (fp #b0 #x7f #b00110011001100110011010)
                           (fp.sub roundNearestTiesToEven
                                   (fp #b0 #x85 #b10010000011001100110011)
                                   |runge_kutta_1_5::runge_kutta::9::yi@2!0&0#3|))
                   (fp.sub roundNearestTiesToEven
                           (fp #b0 #x85 #b10010000011001100110011)
                           |runge_kutta_1_5::runge_kutta::9::yi@2!0&0#3|))))
  (= a!1 |runge_kutta_1_5::runge_kutta::4::k1@2!0&0#4|)))
(assert (let ((a!1 (fp.sub roundNearestTiesToEven
                   (fp #b0 #x85 #b10010000011001100110011)
                   (fp.add roundNearestTiesToEven
                           |runge_kutta_1_5::runge_kutta::9::yi@2!0&0#3|
                           (fp.mul roundNearestTiesToEven
                                   (fp #b0 #x7a #b10011001100110011001101)
                                   |runge_kutta_1_5::runge_kutta::4::k1@2!0&0#4|)))))
  (= (fp.mul roundNearestTiesToEven
             (fp.mul roundNearestTiesToEven
                     (fp #b0 #x7f #b00110011001100110011010)
                     a!1)
             a!1)
     |runge_kutta_1_5::runge_kutta::5::k2@2!0&0#4|)))
(assert (= (fp.add roundNearestTiesToEven
           |runge_kutta_1_5::runge_kutta::9::yi@2!0&0#3|
           (fp.mul roundNearestTiesToEven
                   (fp #b0 #x7b #b10011001100110011001101)
                   |runge_kutta_1_5::runge_kutta::5::k2@2!0&0#4|))
   |runge_kutta_1_5::runge_kutta::8::ynext@2!0&0#4|))
(assert (= |runge_kutta_1_5::runge_kutta::8::ynext@2!0&0#4|
   |runge_kutta_1_5::runge_kutta::9::yi@2!0&0#4|))
(assert (let ((a!1 (fp.mul roundNearestTiesToEven
                   (fp.mul roundNearestTiesToEven
                           (fp #b0 #x7f #b00110011001100110011010)
                           (fp.sub roundNearestTiesToEven
                                   (fp #b0 #x85 #b10010000011001100110011)
                                   |runge_kutta_1_5::runge_kutta::9::yi@2!0&0#4|))
                   (fp.sub roundNearestTiesToEven
                           (fp #b0 #x85 #b10010000011001100110011)
                           |runge_kutta_1_5::runge_kutta::9::yi@2!0&0#4|))))
  (= a!1 |runge_kutta_1_5::runge_kutta::4::k1@2!0&0#5|)))
(assert (let ((a!1 (fp.sub roundNearestTiesToEven
                   (fp #b0 #x85 #b10010000011001100110011)
                   (fp.add roundNearestTiesToEven
                           |runge_kutta_1_5::runge_kutta::9::yi@2!0&0#4|
                           (fp.mul roundNearestTiesToEven
                                   (fp #b0 #x7a #b10011001100110011001101)
                                   |runge_kutta_1_5::runge_kutta::4::k1@2!0&0#5|)))))
  (= (fp.mul roundNearestTiesToEven
             (fp.mul roundNearestTiesToEven
                     (fp #b0 #x7f #b00110011001100110011010)
                     a!1)
             a!1)
     |runge_kutta_1_5::runge_kutta::5::k2@2!0&0#5|)))
(assert (= (fp.add roundNearestTiesToEven
           |runge_kutta_1_5::runge_kutta::9::yi@2!0&0#4|
           (fp.mul roundNearestTiesToEven
                   (fp #b0 #x7b #b10011001100110011001101)
                   |runge_kutta_1_5::runge_kutta::5::k2@2!0&0#5|))
   |runge_kutta_1_5::runge_kutta::8::ynext@2!0&0#5|))
(assert (= |runge_kutta_1_5::runge_kutta::8::ynext@2!0&0#5|
   |runge_kutta_1_5::runge_kutta::9::yi@2!0&0#5|))
(assert (let ((a!1 (fp.mul roundNearestTiesToEven
                   (fp.mul roundNearestTiesToEven
                           (fp #b0 #x7f #b00110011001100110011010)
                           (fp.sub roundNearestTiesToEven
                                   (fp #b0 #x85 #b10010000011001100110011)
                                   |runge_kutta_1_5::runge_kutta::9::yi@2!0&0#5|))
                   (fp.sub roundNearestTiesToEven
                           (fp #b0 #x85 #b10010000011001100110011)
                           |runge_kutta_1_5::runge_kutta::9::yi@2!0&0#5|))))
  (= a!1 |runge_kutta_1_5::runge_kutta::4::k1@2!0&0#6|)))
(assert (let ((a!1 (fp.sub roundNearestTiesToEven
                   (fp #b0 #x85 #b10010000011001100110011)
                   (fp.add roundNearestTiesToEven
                           |runge_kutta_1_5::runge_kutta::9::yi@2!0&0#5|
                           (fp.mul roundNearestTiesToEven
                                   (fp #b0 #x7a #b10011001100110011001101)
                                   |runge_kutta_1_5::runge_kutta::4::k1@2!0&0#6|)))))
  (= (fp.mul roundNearestTiesToEven
             (fp.mul roundNearestTiesToEven
                     (fp #b0 #x7f #b00110011001100110011010)
                     a!1)
             a!1)
     |runge_kutta_1_5::runge_kutta::5::k2@2!0&0#6|)))
(assert (= (fp.add roundNearestTiesToEven
           |runge_kutta_1_5::runge_kutta::9::yi@2!0&0#5|
           (fp.mul roundNearestTiesToEven
                   (fp #b0 #x7b #b10011001100110011001101)
                   |runge_kutta_1_5::runge_kutta::5::k2@2!0&0#6|))
   |runge_kutta_1_5::runge_kutta::8::ynext@2!0&0#6|))
(assert (= |runge_kutta_1_5::runge_kutta::8::ynext@2!0&0#6|
   |runge_kutta_1_5::runge_kutta::9::yi@2!0&0#6|))
(assert (= |runge_kutta_1_5::runge_kutta::9::yi@2!0&0#6|
   |main::$tmp::return_value$_runge_kutta$3@1!0&0#1|))
(assert (= |runge_kutta_1_5::main::2::y0_opt@1!0&0#1|
   |runge_kutta_1_5::runge_kutta_opt::y0@1!0&0#1|))
(assert (= |runge_kutta_1_5::runge_kutta_opt::y0@1!0&0#1|
   |runge_kutta_1_5::runge_kutta_opt::2::yi_opt@2!0&0#1|))
(assert (let ((a!1 (fp.mul roundNearestTiesToEven
                   (fp.mul roundNearestTiesToEven
                           (fp #b0 #x7f #b00110011001100110011010)
                           (fp.sub roundNearestTiesToEven
                                   (fp #b0 #x82 #b01000011001100110011010)
                                   |runge_kutta_1_5::runge_kutta_opt::2::yi_opt@2!0&0#1|))
                   (fp.sub roundNearestTiesToEven
                           (fp #b0 #x82 #b01000011001100110011010)
                           |runge_kutta_1_5::runge_kutta_opt::2::yi_opt@2!0&0#1|))))
(let ((a!2 (fp.sub roundNearestTiesToEven
                   (fp #b0 #x82 #b01000011001100110011010)
                   (fp.add roundNearestTiesToEven
                           (fp.mul roundNearestTiesToEven
                                   a!1
                                   (fp #b0 #x77 #b01000111101011100001010))
                           |runge_kutta_1_5::runge_kutta_opt::2::yi_opt@2!0&0#1|))))
(let ((a!3 (fp.add roundNearestTiesToEven
                   |runge_kutta_1_5::runge_kutta_opt::2::yi_opt@2!0&0#1|
                   (fp.mul roundNearestTiesToEven
                           (fp.mul roundNearestTiesToEven
                                   (fp #b0 #x7f #b00110011001100110011010)
                                   a!2)
                           a!2))))
  (= a!3 |runge_kutta_1_5::runge_kutta_opt::3::ynext_opt@2!0&0#2|)))))
(assert (= |runge_kutta_1_5::runge_kutta_opt::3::ynext_opt@2!0&0#2|
   |runge_kutta_1_5::runge_kutta_opt::2::yi_opt@2!0&0#2|))
(assert (let ((a!1 (fp.mul roundNearestTiesToEven
                   (fp.mul roundNearestTiesToEven
                           (fp #b0 #x7f #b00110011001100110011010)
                           (fp.sub roundNearestTiesToEven
                                   (fp #b0 #x82 #b01000011001100110011010)
                                   |runge_kutta_1_5::runge_kutta_opt::2::yi_opt@2!0&0#2|))
                   (fp.sub roundNearestTiesToEven
                           (fp #b0 #x82 #b01000011001100110011010)
                           |runge_kutta_1_5::runge_kutta_opt::2::yi_opt@2!0&0#2|))))
(let ((a!2 (fp.sub roundNearestTiesToEven
                   (fp #b0 #x82 #b01000011001100110011010)
                   (fp.add roundNearestTiesToEven
                           (fp.mul roundNearestTiesToEven
                                   a!1
                                   (fp #b0 #x77 #b01000111101011100001010))
                           |runge_kutta_1_5::runge_kutta_opt::2::yi_opt@2!0&0#2|))))
(let ((a!3 (fp.add roundNearestTiesToEven
                   |runge_kutta_1_5::runge_kutta_opt::2::yi_opt@2!0&0#2|
                   (fp.mul roundNearestTiesToEven
                           (fp.mul roundNearestTiesToEven
                                   (fp #b0 #x7f #b00110011001100110011010)
                                   a!2)
                           a!2))))
  (= a!3 |runge_kutta_1_5::runge_kutta_opt::3::ynext_opt@2!0&0#3|)))))
(assert (= |runge_kutta_1_5::runge_kutta_opt::3::ynext_opt@2!0&0#3|
   |runge_kutta_1_5::runge_kutta_opt::2::yi_opt@2!0&0#3|))
(assert (let ((a!1 (fp.mul roundNearestTiesToEven
                   (fp.mul roundNearestTiesToEven
                           (fp #b0 #x7f #b00110011001100110011010)
                           (fp.sub roundNearestTiesToEven
                                   (fp #b0 #x82 #b01000011001100110011010)
                                   |runge_kutta_1_5::runge_kutta_opt::2::yi_opt@2!0&0#3|))
                   (fp.sub roundNearestTiesToEven
                           (fp #b0 #x82 #b01000011001100110011010)
                           |runge_kutta_1_5::runge_kutta_opt::2::yi_opt@2!0&0#3|))))
(let ((a!2 (fp.sub roundNearestTiesToEven
                   (fp #b0 #x82 #b01000011001100110011010)
                   (fp.add roundNearestTiesToEven
                           (fp.mul roundNearestTiesToEven
                                   a!1
                                   (fp #b0 #x77 #b01000111101011100001010))
                           |runge_kutta_1_5::runge_kutta_opt::2::yi_opt@2!0&0#3|))))
(let ((a!3 (fp.add roundNearestTiesToEven
                   |runge_kutta_1_5::runge_kutta_opt::2::yi_opt@2!0&0#3|
                   (fp.mul roundNearestTiesToEven
                           (fp.mul roundNearestTiesToEven
                                   (fp #b0 #x7f #b00110011001100110011010)
                                   a!2)
                           a!2))))
  (= a!3 |runge_kutta_1_5::runge_kutta_opt::3::ynext_opt@2!0&0#4|)))))
(assert (= |runge_kutta_1_5::runge_kutta_opt::3::ynext_opt@2!0&0#4|
   |runge_kutta_1_5::runge_kutta_opt::2::yi_opt@2!0&0#4|))
(assert (let ((a!1 (fp.mul roundNearestTiesToEven
                   (fp.mul roundNearestTiesToEven
                           (fp #b0 #x7f #b00110011001100110011010)
                           (fp.sub roundNearestTiesToEven
                                   (fp #b0 #x82 #b01000011001100110011010)
                                   |runge_kutta_1_5::runge_kutta_opt::2::yi_opt@2!0&0#4|))
                   (fp.sub roundNearestTiesToEven
                           (fp #b0 #x82 #b01000011001100110011010)
                           |runge_kutta_1_5::runge_kutta_opt::2::yi_opt@2!0&0#4|))))
(let ((a!2 (fp.sub roundNearestTiesToEven
                   (fp #b0 #x82 #b01000011001100110011010)
                   (fp.add roundNearestTiesToEven
                           (fp.mul roundNearestTiesToEven
                                   a!1
                                   (fp #b0 #x77 #b01000111101011100001010))
                           |runge_kutta_1_5::runge_kutta_opt::2::yi_opt@2!0&0#4|))))
(let ((a!3 (fp.add roundNearestTiesToEven
                   |runge_kutta_1_5::runge_kutta_opt::2::yi_opt@2!0&0#4|
                   (fp.mul roundNearestTiesToEven
                           (fp.mul roundNearestTiesToEven
                                   (fp #b0 #x7f #b00110011001100110011010)
                                   a!2)
                           a!2))))
  (= a!3 |runge_kutta_1_5::runge_kutta_opt::3::ynext_opt@2!0&0#5|)))))
(assert (= |runge_kutta_1_5::runge_kutta_opt::3::ynext_opt@2!0&0#5|
   |runge_kutta_1_5::runge_kutta_opt::2::yi_opt@2!0&0#5|))
(assert (let ((a!1 (fp.mul roundNearestTiesToEven
                   (fp.mul roundNearestTiesToEven
                           (fp #b0 #x7f #b00110011001100110011010)
                           (fp.sub roundNearestTiesToEven
                                   (fp #b0 #x82 #b01000011001100110011010)
                                   |runge_kutta_1_5::runge_kutta_opt::2::yi_opt@2!0&0#5|))
                   (fp.sub roundNearestTiesToEven
                           (fp #b0 #x82 #b01000011001100110011010)
                           |runge_kutta_1_5::runge_kutta_opt::2::yi_opt@2!0&0#5|))))
(let ((a!2 (fp.sub roundNearestTiesToEven
                   (fp #b0 #x82 #b01000011001100110011010)
                   (fp.add roundNearestTiesToEven
                           (fp.mul roundNearestTiesToEven
                                   a!1
                                   (fp #b0 #x77 #b01000111101011100001010))
                           |runge_kutta_1_5::runge_kutta_opt::2::yi_opt@2!0&0#5|))))
(let ((a!3 (fp.add roundNearestTiesToEven
                   |runge_kutta_1_5::runge_kutta_opt::2::yi_opt@2!0&0#5|
                   (fp.mul roundNearestTiesToEven
                           (fp.mul roundNearestTiesToEven
                                   (fp #b0 #x7f #b00110011001100110011010)
                                   a!2)
                           a!2))))
  (= a!3 |runge_kutta_1_5::runge_kutta_opt::3::ynext_opt@2!0&0#6|)))))
(assert (= |runge_kutta_1_5::runge_kutta_opt::3::ynext_opt@2!0&0#6|
   |runge_kutta_1_5::runge_kutta_opt::2::yi_opt@2!0&0#6|))
(assert (= |runge_kutta_1_5::runge_kutta_opt::2::yi_opt@2!0&0#6|
   |main::$tmp::return_value$_runge_kutta_opt$4@1!0&0#1|))
(assert (= (fp.sub roundNearestTiesToEven
           |main::$tmp::return_value$_runge_kutta$3@1!0&0#1|
           |main::$tmp::return_value$_runge_kutta_opt$4@1!0&0#1|)
   |runge_kutta_1_5::main::3::diff@1!0&0#2|))
(assert (= (fp.lt (fp.mul roundNearestTiesToEven
                  |runge_kutta_1_5::main::3::diff@1!0&0#2|
                  |runge_kutta_1_5::main::3::diff@1!0&0#2|)
          (fp #b0 #x00 #b00000000000000000000000))
   |goto_symex::guard@0!0&0#1|))
(assert (let ((a!1 (ite (and (fp.geq ((_ to_fp 11 53)
                               roundNearestTiesToEven
                               |runge_kutta_1_5::main::1::y0@1!0&0#1|)
                             (fp #b1 #b10000000010 #x4333333333333))
                     (fp.leq ((_ to_fp 11 53)
                               roundNearestTiesToEven
                               |runge_kutta_1_5::main::1::y0@1!0&0#1|)
                             (fp #b0 #b10000000010 #x4333333333333)))
                #x00000001
                #x00000000))
      (a!2 (ite (and (fp.geq ((_ to_fp 11 53)
                               roundNearestTiesToEven
                               |runge_kutta_1_5::main::2::y0_opt@1!0&0#1|)
                             (fp #b1 #b10000000010 #x4333333333333))
                     (fp.leq ((_ to_fp 11 53)
                               roundNearestTiesToEven
                               |runge_kutta_1_5::main::2::y0_opt@1!0&0#1|)
                             (fp #b0 #b10000000010 #x4333333333333)))
                #x00000001
                #x00000000)))
(let ((a!3 (=> (and true (not (= a!1 #x00000000)) (not (= a!2 #x00000000)))
               (=> |execution_statet::guard_exec@0!0|
                   |goto_symex::guard@0!0&0#1|))))
  (not a!3))))

(check-sat)
